11
2147483647 10 54 42 95 88 99 42 6 96 46 
10 2147483647 40 95 9 10 18 27 75 15 42 
54 40 2147483647 52 33 99 39 55 90 97 72 
42 95 52 2147483647 52 45 71 19 97 16 37 
95 9 33 52 2147483647 9 65 75 81 2 53 
88 10 99 45 9 2147483647 27 19 71 64 83 
99 18 39 71 65 27 2147483647 3 65 24 70 
42 27 55 19 75 19 3 2147483647 24 89 91 
6 75 90 97 81 71 65 24 2147483647 12 28 
96 15 97 16 2 64 24 89 12 2147483647 71 
46 42 72 37 53 83 70 91 28 71 2147483647 
